201,406
681,376
667,318
641,326
705,423
709,415
787,512
633,441
387,555
436,887
681,766
548,474
597,490
339,295
580,93
681,76
681,316
765,322
681,256
838,-79
847,-107
850,237
998,-30
981,406
787,460
658,554
803,646
597,939
1041,766
1117,723
